Minimize
	value: tt

Subject to
tt + 1000 s_1_1 > 0.0
tt - t_1_1 - 1000.000000 s_1_1  > -998.988911
tt + 1000 s_2_1 > 0.0
tt - t_2_1 - 1000.000000 s_2_1  > -994.664944
tt + 1000 s_1_2 > 0.0
tt - t_1_2 - 1000.748728 s_1_2  + 0.748728 s_1_7  > -999.127289
tt + 1000 s_2_2 > 0.0
tt - t_2_2 - 1000.855581 s_2_2  + 0.855581 s_2_7  > -994.987667
tt + 1000 s_1_3 > 0.0
tt - t_1_3 - 1000.748728 s_1_3  + 0.748728 s_1_7  > -999.278478
tt + 1000 s_2_3 > 0.0
tt - t_2_3 - 1000.855581 s_2_3  + 0.855581 s_2_7  > -994.460378
tt + 1000 s_1_4 > 0.0
tt - t_1_4 - 1001.135037 s_1_4  + 0.748728 s_1_7  + 0.386308 s_1_3  > -999.630600
tt + 1000 s_2_4 > 0.0
tt - t_2_4 - 1001.274807 s_2_4  + 0.855581 s_2_7  + 0.419226 s_2_3  > -995.729356
tt + 1000 s_1_5 > 0.0
tt - t_1_5 - 1000.748728 s_1_5  + 0.748728 s_1_7  > -999.346489
tt + 1000 s_2_5 > 0.0
tt - t_2_5 - 1000.855581 s_2_5  + 0.855581 s_2_7  > -995.982922
tt + 1000 s_1_6 > 0.0
tt - t_1_6 - 1001.931542 s_1_6  + 0.386308 s_1_5  + 0.386308 s_1_1  + 0.386308 s_1_3  + 0.386308 s_1_4  + 0.386308 s_1_2  > -999.835800
tt + 1000 s_2_6 > 0.0
tt - t_2_6 - 1002.096132 s_2_6  + 0.419226 s_2_5  + 0.419226 s_2_1  + 0.419226 s_2_3  + 0.419226 s_2_4  + 0.419226 s_2_2  > -996.953100
tt + 1000 s_1_7 > 0.0
tt - t_1_7 - 1000.000000 s_1_7  > -999.494200
tt + 1000 s_2_7 > 0.0
tt - t_2_7 - 1000.000000 s_2_7  > -997.596867
s_1_1 + s_2_1 = 1
s_1_2 + s_2_2 = 1
s_1_3 + s_2_3 = 1
s_1_4 + s_2_4 = 1
s_1_5 + s_2_5 = 1
s_1_6 + s_2_6 = 1
s_1_7 + s_2_7 = 1
s_1_1 + s_1_2 + 1000 r_1_1_2 >= 2
- s_1_1 - s_1_2 - 1000 r_1_1_2 >= -1001
t_1_1 - t_1_2 - 1000.000000 u_1_1_2 - 0.748728 s_1_2  + 0.748728 s_1_7  + 2000.000000 r_1_1_2 > -999.127289
s_2_1 + s_2_2 + 1000 r_2_1_2 >= 2
- s_2_1 - s_2_2 - 1000 r_2_1_2 >= -1001
t_2_1 - t_2_2 - 1000.000000 u_2_1_2 - 0.855581 s_2_2  + 0.855581 s_2_7  + 2000.000000 r_2_1_2 > -994.987667
s_1_1 + s_1_3 + 1000 r_1_1_3 >= 2
- s_1_1 - s_1_3 - 1000 r_1_1_3 >= -1001
t_1_1 - t_1_3 - 1000.000000 u_1_1_3 - 0.748728 s_1_3  + 0.748728 s_1_7  + 2000.000000 r_1_1_3 > -999.278478
s_2_1 + s_2_3 + 1000 r_2_1_3 >= 2
- s_2_1 - s_2_3 - 1000 r_2_1_3 >= -1001
t_2_1 - t_2_3 - 1000.000000 u_2_1_3 - 0.855581 s_2_3  + 0.855581 s_2_7  + 2000.000000 r_2_1_3 > -994.460378
s_1_1 + s_1_4 + 1000 r_1_1_4 >= 2
- s_1_1 - s_1_4 - 1000 r_1_1_4 >= -1001
t_1_1 - t_1_4 - 1000.000000 u_1_1_4 - 1.135037 s_1_4  + 0.748728 s_1_7  + 0.386308 s_1_3  + 2000.000000 r_1_1_4 > -999.630600
s_2_1 + s_2_4 + 1000 r_2_1_4 >= 2
- s_2_1 - s_2_4 - 1000 r_2_1_4 >= -1001
t_2_1 - t_2_4 - 1000.000000 u_2_1_4 - 1.274807 s_2_4  + 0.855581 s_2_7  + 0.419226 s_2_3  + 2000.000000 r_2_1_4 > -995.729356
s_1_1 + s_1_5 + 1000 r_1_1_5 >= 2
- s_1_1 - s_1_5 - 1000 r_1_1_5 >= -1001
t_1_1 - t_1_5 - 1000.000000 u_1_1_5 - 0.748728 s_1_5  + 0.748728 s_1_7  + 2000.000000 r_1_1_5 > -999.346489
s_2_1 + s_2_5 + 1000 r_2_1_5 >= 2
- s_2_1 - s_2_5 - 1000 r_2_1_5 >= -1001
t_2_1 - t_2_5 - 1000.000000 u_2_1_5 - 0.855581 s_2_5  + 0.855581 s_2_7  + 2000.000000 r_2_1_5 > -995.982922
t_1_6 - t_1_1 - 1000.000000 s_1_1  > -998.988911
t_1_6 - t_2_1 - 1000.000000 s_2_1  > -994.664944
t_2_6 - t_1_1 - 1000.000000 s_1_1  > -998.988911
t_2_6 - t_2_1 - 1000.000000 s_2_1  > -994.664944
s_1_1 + s_1_7 + 1000 r_1_1_7 >= 2
- s_1_1 - s_1_7 - 1000 r_1_1_7 >= -1001
t_1_1 - t_1_7 - 1000.000000 u_1_1_7 - 0.000000 s_1_7  + 2000.000000 r_1_1_7 > -999.494200
s_2_1 + s_2_7 + 1000 r_2_1_7 >= 2
- s_2_1 - s_2_7 - 1000 r_2_1_7 >= -1001
t_2_1 - t_2_7 - 1000.000000 u_2_1_7 - 0.000000 s_2_7  + 2000.000000 r_2_1_7 > -997.596867
s_1_2 + s_1_1 + 1000 r_1_1_2 >= 2
- s_1_2 - s_1_1 - 1000 r_1_1_2 >= -1001
t_1_2 - t_1_1 + 1000.000000 u_1_1_2 - 0.000000 s_1_1  + 2000.000000 r_1_1_2 > 1.011089
s_2_2 + s_2_1 + 1000 r_2_1_2 >= 2
- s_2_2 - s_2_1 - 1000 r_2_1_2 >= -1001
t_2_2 - t_2_1 + 1000.000000 u_2_1_2 - 0.000000 s_2_1  + 2000.000000 r_2_1_2 > 5.335056
s_1_2 + s_1_3 + 1000 r_1_2_3 >= 2
- s_1_2 - s_1_3 - 1000 r_1_2_3 >= -1001
t_1_2 - t_1_3 - 1000.000000 u_1_2_3 - 0.748728 s_1_3  + 0.748728 s_1_7  + 2000.000000 r_1_2_3 > -999.278478
s_2_2 + s_2_3 + 1000 r_2_2_3 >= 2
- s_2_2 - s_2_3 - 1000 r_2_2_3 >= -1001
t_2_2 - t_2_3 - 1000.000000 u_2_2_3 - 0.855581 s_2_3  + 0.855581 s_2_7  + 2000.000000 r_2_2_3 > -994.460378
s_1_2 + s_1_4 + 1000 r_1_2_4 >= 2
- s_1_2 - s_1_4 - 1000 r_1_2_4 >= -1001
t_1_2 - t_1_4 - 1000.000000 u_1_2_4 - 1.135037 s_1_4  + 0.748728 s_1_7  + 0.386308 s_1_3  + 2000.000000 r_1_2_4 > -999.630600
s_2_2 + s_2_4 + 1000 r_2_2_4 >= 2
- s_2_2 - s_2_4 - 1000 r_2_2_4 >= -1001
t_2_2 - t_2_4 - 1000.000000 u_2_2_4 - 1.274807 s_2_4  + 0.855581 s_2_7  + 0.419226 s_2_3  + 2000.000000 r_2_2_4 > -995.729356
s_1_2 + s_1_5 + 1000 r_1_2_5 >= 2
- s_1_2 - s_1_5 - 1000 r_1_2_5 >= -1001
t_1_2 - t_1_5 - 1000.000000 u_1_2_5 - 0.748728 s_1_5  + 0.748728 s_1_7  + 2000.000000 r_1_2_5 > -999.346489
s_2_2 + s_2_5 + 1000 r_2_2_5 >= 2
- s_2_2 - s_2_5 - 1000 r_2_2_5 >= -1001
t_2_2 - t_2_5 - 1000.000000 u_2_2_5 - 0.855581 s_2_5  + 0.855581 s_2_7  + 2000.000000 r_2_2_5 > -995.982922
t_1_6 - t_1_2 - 1000.748728 s_1_2  + 0.748728 s_1_7  > -999.127289
t_1_6 - t_2_2 - 1000.855581 s_2_2  + 0.855581 s_2_7  > -994.987667
t_2_6 - t_1_2 - 1000.748728 s_1_2  + 0.748728 s_1_7  > -999.127289
t_2_6 - t_2_2 - 1000.855581 s_2_2  + 0.855581 s_2_7  > -994.987667
t_1_2 - t_1_7 - 1000.000000 s_1_7  > -999.494200
t_1_2 - t_2_7 - 1000.000000 s_2_7  > -997.596867
t_2_2 - t_1_7 - 1000.000000 s_1_7  > -999.494200
t_2_2 - t_2_7 - 1000.000000 s_2_7  > -997.596867
s_1_3 + s_1_1 + 1000 r_1_1_3 >= 2
- s_1_3 - s_1_1 - 1000 r_1_1_3 >= -1001
t_1_3 - t_1_1 + 1000.000000 u_1_1_3 - 0.000000 s_1_1  + 2000.000000 r_1_1_3 > 1.011089
s_2_3 + s_2_1 + 1000 r_2_1_3 >= 2
- s_2_3 - s_2_1 - 1000 r_2_1_3 >= -1001
t_2_3 - t_2_1 + 1000.000000 u_2_1_3 - 0.000000 s_2_1  + 2000.000000 r_2_1_3 > 5.335056
s_1_3 + s_1_2 + 1000 r_1_2_3 >= 2
- s_1_3 - s_1_2 - 1000 r_1_2_3 >= -1001
t_1_3 - t_1_2 + 1000.000000 u_1_2_3 - 0.748728 s_1_2  + 0.748728 s_1_7  + 2000.000000 r_1_2_3 > 0.872711
s_2_3 + s_2_2 + 1000 r_2_2_3 >= 2
- s_2_3 - s_2_2 - 1000 r_2_2_3 >= -1001
t_2_3 - t_2_2 + 1000.000000 u_2_2_3 - 0.855581 s_2_2  + 0.855581 s_2_7  + 2000.000000 r_2_2_3 > 5.012333
t_1_4 - t_1_3 - 1000.748728 s_1_3  + 0.748728 s_1_7  > -999.278478
t_1_4 - t_2_3 - 1000.855581 s_2_3  + 0.855581 s_2_7  > -994.460378
t_2_4 - t_1_3 - 1000.748728 s_1_3  + 0.748728 s_1_7  > -999.278478
t_2_4 - t_2_3 - 1000.855581 s_2_3  + 0.855581 s_2_7  > -994.460378
s_1_3 + s_1_5 + 1000 r_1_3_5 >= 2
- s_1_3 - s_1_5 - 1000 r_1_3_5 >= -1001
t_1_3 - t_1_5 - 1000.000000 u_1_3_5 - 0.748728 s_1_5  + 0.748728 s_1_7  + 2000.000000 r_1_3_5 > -999.346489
s_2_3 + s_2_5 + 1000 r_2_3_5 >= 2
- s_2_3 - s_2_5 - 1000 r_2_3_5 >= -1001
t_2_3 - t_2_5 - 1000.000000 u_2_3_5 - 0.855581 s_2_5  + 0.855581 s_2_7  + 2000.000000 r_2_3_5 > -995.982922
t_1_6 - t_1_3 - 1000.748728 s_1_3  + 0.748728 s_1_7  > -999.278478
t_1_6 - t_2_3 - 1000.855581 s_2_3  + 0.855581 s_2_7  > -994.460378
t_2_6 - t_1_3 - 1000.748728 s_1_3  + 0.748728 s_1_7  > -999.278478
t_2_6 - t_2_3 - 1000.855581 s_2_3  + 0.855581 s_2_7  > -994.460378
t_1_3 - t_1_7 - 1000.000000 s_1_7  > -999.494200
t_1_3 - t_2_7 - 1000.000000 s_2_7  > -997.596867
t_2_3 - t_1_7 - 1000.000000 s_1_7  > -999.494200
t_2_3 - t_2_7 - 1000.000000 s_2_7  > -997.596867
s_1_4 + s_1_1 + 1000 r_1_1_4 >= 2
- s_1_4 - s_1_1 - 1000 r_1_1_4 >= -1001
t_1_4 - t_1_1 + 1000.000000 u_1_1_4 - 0.000000 s_1_1  + 2000.000000 r_1_1_4 > 1.011089
s_2_4 + s_2_1 + 1000 r_2_1_4 >= 2
- s_2_4 - s_2_1 - 1000 r_2_1_4 >= -1001
t_2_4 - t_2_1 + 1000.000000 u_2_1_4 - 0.000000 s_2_1  + 2000.000000 r_2_1_4 > 5.335056
s_1_4 + s_1_2 + 1000 r_1_2_4 >= 2
- s_1_4 - s_1_2 - 1000 r_1_2_4 >= -1001
t_1_4 - t_1_2 + 1000.000000 u_1_2_4 - 0.748728 s_1_2  + 0.748728 s_1_7  + 2000.000000 r_1_2_4 > 0.872711
s_2_4 + s_2_2 + 1000 r_2_2_4 >= 2
- s_2_4 - s_2_2 - 1000 r_2_2_4 >= -1001
t_2_4 - t_2_2 + 1000.000000 u_2_2_4 - 0.855581 s_2_2  + 0.855581 s_2_7  + 2000.000000 r_2_2_4 > 5.012333
s_1_4 + s_1_5 + 1000 r_1_4_5 >= 2
- s_1_4 - s_1_5 - 1000 r_1_4_5 >= -1001
t_1_4 - t_1_5 - 1000.000000 u_1_4_5 - 0.748728 s_1_5  + 0.748728 s_1_7  + 2000.000000 r_1_4_5 > -999.346489
s_2_4 + s_2_5 + 1000 r_2_4_5 >= 2
- s_2_4 - s_2_5 - 1000 r_2_4_5 >= -1001
t_2_4 - t_2_5 - 1000.000000 u_2_4_5 - 0.855581 s_2_5  + 0.855581 s_2_7  + 2000.000000 r_2_4_5 > -995.982922
t_1_6 - t_1_4 - 1001.135037 s_1_4  + 0.748728 s_1_7  + 0.386308 s_1_3  > -999.630600
t_1_6 - t_2_4 - 1001.274807 s_2_4  + 0.855581 s_2_7  + 0.419226 s_2_3  > -995.729356
t_2_6 - t_1_4 - 1001.135037 s_1_4  + 0.748728 s_1_7  + 0.386308 s_1_3  > -999.630600
t_2_6 - t_2_4 - 1001.274807 s_2_4  + 0.855581 s_2_7  + 0.419226 s_2_3  > -995.729356
t_1_4 - t_1_7 - 1000.000000 s_1_7  > -999.494200
t_1_4 - t_2_7 - 1000.000000 s_2_7  > -997.596867
t_2_4 - t_1_7 - 1000.000000 s_1_7  > -999.494200
t_2_4 - t_2_7 - 1000.000000 s_2_7  > -997.596867
s_1_5 + s_1_1 + 1000 r_1_1_5 >= 2
- s_1_5 - s_1_1 - 1000 r_1_1_5 >= -1001
t_1_5 - t_1_1 + 1000.000000 u_1_1_5 - 0.000000 s_1_1  + 2000.000000 r_1_1_5 > 1.011089
s_2_5 + s_2_1 + 1000 r_2_1_5 >= 2
- s_2_5 - s_2_1 - 1000 r_2_1_5 >= -1001
t_2_5 - t_2_1 + 1000.000000 u_2_1_5 - 0.000000 s_2_1  + 2000.000000 r_2_1_5 > 5.335056
s_1_5 + s_1_2 + 1000 r_1_2_5 >= 2
- s_1_5 - s_1_2 - 1000 r_1_2_5 >= -1001
t_1_5 - t_1_2 + 1000.000000 u_1_2_5 - 0.748728 s_1_2  + 0.748728 s_1_7  + 2000.000000 r_1_2_5 > 0.872711
s_2_5 + s_2_2 + 1000 r_2_2_5 >= 2
- s_2_5 - s_2_2 - 1000 r_2_2_5 >= -1001
t_2_5 - t_2_2 + 1000.000000 u_2_2_5 - 0.855581 s_2_2  + 0.855581 s_2_7  + 2000.000000 r_2_2_5 > 5.012333
s_1_5 + s_1_3 + 1000 r_1_3_5 >= 2
- s_1_5 - s_1_3 - 1000 r_1_3_5 >= -1001
t_1_5 - t_1_3 + 1000.000000 u_1_3_5 - 0.748728 s_1_3  + 0.748728 s_1_7  + 2000.000000 r_1_3_5 > 0.721522
s_2_5 + s_2_3 + 1000 r_2_3_5 >= 2
- s_2_5 - s_2_3 - 1000 r_2_3_5 >= -1001
t_2_5 - t_2_3 + 1000.000000 u_2_3_5 - 0.855581 s_2_3  + 0.855581 s_2_7  + 2000.000000 r_2_3_5 > 5.539622
s_1_5 + s_1_4 + 1000 r_1_4_5 >= 2
- s_1_5 - s_1_4 - 1000 r_1_4_5 >= -1001
t_1_5 - t_1_4 + 1000.000000 u_1_4_5 - 1.135037 s_1_4  + 0.748728 s_1_7  + 0.386308 s_1_3  + 2000.000000 r_1_4_5 > 0.369400
s_2_5 + s_2_4 + 1000 r_2_4_5 >= 2
- s_2_5 - s_2_4 - 1000 r_2_4_5 >= -1001
t_2_5 - t_2_4 + 1000.000000 u_2_4_5 - 1.274807 s_2_4  + 0.855581 s_2_7  + 0.419226 s_2_3  + 2000.000000 r_2_4_5 > 4.270644
t_1_6 - t_1_5 - 1000.748728 s_1_5  + 0.748728 s_1_7  > -999.346489
t_1_6 - t_2_5 - 1000.855581 s_2_5  + 0.855581 s_2_7  > -995.982922
t_2_6 - t_1_5 - 1000.748728 s_1_5  + 0.748728 s_1_7  > -999.346489
t_2_6 - t_2_5 - 1000.855581 s_2_5  + 0.855581 s_2_7  > -995.982922
t_1_5 - t_1_7 - 1000.000000 s_1_7  > -999.494200
t_1_5 - t_2_7 - 1000.000000 s_2_7  > -997.596867
t_2_5 - t_1_7 - 1000.000000 s_1_7  > -999.494200
t_2_5 - t_2_7 - 1000.000000 s_2_7  > -997.596867
s_1_7 + s_1_1 + 1000 r_1_1_7 >= 2
- s_1_7 - s_1_1 - 1000 r_1_1_7 >= -1001
t_1_7 - t_1_1 + 1000.000000 u_1_1_7 - 0.000000 s_1_1  + 2000.000000 r_1_1_7 > 1.011089
s_2_7 + s_2_1 + 1000 r_2_1_7 >= 2
- s_2_7 - s_2_1 - 1000 r_2_1_7 >= -1001
t_2_7 - t_2_1 + 1000.000000 u_2_1_7 - 0.000000 s_2_1  + 2000.000000 r_2_1_7 > 5.335056
Binary
s_1_1
s_2_1
s_1_2
s_2_2
s_1_3
s_2_3
s_1_4
s_2_4
s_1_5
s_2_5
s_1_6
s_2_6
s_1_7
s_2_7
u_1_1_2
r_1_1_2
u_2_1_2
r_2_1_2
u_1_1_3
r_1_1_3
u_2_1_3
r_2_1_3
u_1_1_4
r_1_1_4
u_2_1_4
r_2_1_4
u_1_1_5
r_1_1_5
u_2_1_5
r_2_1_5
u_1_1_7
r_1_1_7
u_2_1_7
r_2_1_7
u_1_2_3
r_1_2_3
u_2_2_3
r_2_2_3
u_1_2_4
r_1_2_4
u_2_2_4
r_2_2_4
u_1_2_5
r_1_2_5
u_2_2_5
r_2_2_5
u_1_3_5
r_1_3_5
u_2_3_5
r_2_3_5
u_1_4_5
r_1_4_5
u_2_4_5
r_2_4_5

End
